(declare-const x0 Bool)
(declare-const x1 Bool)
(declare-const x2 Bool)
(declare-const x3 Bool)
(declare-const x4 Bool)
(declare-const x5 Bool)
(declare-const x6 Bool)
(declare-const x7 Bool)
(declare-const x8 Bool)
(declare-const x9 Bool)
(declare-const x10 Bool)
(declare-const x11 Bool)
(declare-const x12 Bool)
(declare-const x13 Bool)
(declare-const x14 Bool)
(declare-const x15 Bool)
(declare-const x16 Bool)
(declare-const x17 Bool)
(declare-const x18 Bool)
(declare-const y0 Real)
(declare-const y1 Real)
(declare-const y2 Real)
(declare-const y3 Real)
(declare-const y4 Real)
(declare-const y5 Real)
(assert (and (= (or (< y1 99) false) (and (< 35 (+ y0 y1)) true)) (or false x1)))
(assert (and (or (= 61 y2) (and x13 false)) (and (= y2 68) (= true (or false false)))))
(assert (and (= y2 y5) (= x0 (= x7 (= (and x13 x12) true)))))
(assert x1)
(assert (and (or (or x13 x4) x17) (< y1 y3)))
(assert (and (< 26 14) (= 0 y0)))
(assert true)
(assert (< y4 4))
(assert (= y5 (+ y2 13)))
(assert (or (and x17 (and (= x2 true) x9)) x15))
(check-sat)
